20	5
77	39	14	11	83	
94	31	21	2	13	
9	46	15	36	84	
57	18	10	30	46	
29	93	85	89	20	
79	58	46	10	33	
55	85	42	88	74	
73	58	18	22	42	
65	97	36	31	33	
86	10	2	9	71	
25	79	44	43	32	
39	93	89	91	48	
76	2	6	26	42	
24	87	3	3	99	
38	17	1	75	7	
5	18	43	99	54	
91	10	81	63	8	
29	50	57	83	73	
22	8	76	70	30	
27	26	59	84	75	
